p cnf 28 65
a 18 14 0
e 1 2 3 4 5 6 7 8 9 10 11 12 13 15 16 17 19 20 21 22 23 24 25 26 27 28 0
4 -2 0
4 3 0
2 -3 -4 0
1 -4 -5 0
-1 4 -5 0
1 4 5 0
-1 -4 5 0
7 5 0
7 6 0
-5 -6 -7 0
-8 -9 -10 0
8 9 -10 0
-8 9 10 0
8 -9 10 0
-13 -11 0
-13 -12 0
11 12 13 0
14 -8 -15 0
-14 8 -15 0
14 8 15 0
-14 -8 15 0
-16 -8 0
-16 -3 0
8 3 16 0
-17 -15 0
-17 16 0
15 -16 17 0
18 -13 0
18 -17 0
13 17 -18 0
19 -10 0
19 -18 0
10 18 -19 0
-20 -7 0
-20 19 0
7 -19 20 0
-14 21 0
14 21 0
-1 -21 -22 0
1 21 -22 0
-1 21 22 0
1 -21 22 0
23 8 -24 0
-23 -8 -24 0
23 -8 24 0
-23 8 24 0
-25 22 0
-25 24 0
-22 -24 25 0
26 11 0
26 11 0
-11 -26 0
-27 25 0
-27 26 0
-25 -26 27 0
28 20 0
28 -27 0
-20 27 -28 0
-15 -24 -2 -16 17 0
-7 -9 8 -24 28 14 0
-23 -19 6 -28 14 1 26 0
23 26 -6 -3 0
3 -10 17 -18 -7 0
3 6 21 25 12 0
28 0
